96 56 5 70 65 86 88 7 16 47 91 29 62 45 11 82 55 17 52 89 79 4 24 59 57 97 3 19 12 42 64 10 32 36 75 94 0 71 69 6 48 44 49 63 93 43 34 46 35 95 23 87 53 21 41 98 37 27 81 74 84 51 28 13 8 1 80 14 67 20 83 18 39 78 99 2 66 68 40 30 54 60 92 77 50 85 58 76 22 25 38 73 9 15 31 26 90 72 61 33 

